benchmarks/VRPTW/TSPTW/solution/n60w60.003.txt.solution
1 53 61 44 32 4 18 39 8 38 25 22 15 26 29 24 54 20 37 58 10 56 13 51 47 21 33 3 52 28 23 31 30 40 46 5 43 36 50 59 35 6 7 14 42 9 57 17 48 19 16 27 41 12 55 34 45 49 60 11 2 
485
